% Logging successfully configured
%%%mzn-stat: initTime=0.002105283
%%%mzn-stat: objective=861
%%%mzn-stat: nodes=85
%%%mzn-stat: restarts=0
%%%mzn-stat: peakDepth=72
%%%mzn-stat: solveTime=0.001650804
%%%mzn-stat: variables=198
%%%mzn-stat: propagators=121
%%%mzn-stat: failures=12
%%%mzn-stat: propagations=752
%%%mzn-stat: nogoods=12
%%%mzn-stat: numAtomicConstraintsPropagated=0
%%%mzn-stat: allDifferentNumber1PropagationsTotal=61
%%%mzn-stat: allDifferentNumber1PropagationsThatFoundConflict=0
%%%mzn-stat: allDifferentNumber1PropagationsThatPruned=36
%%%mzn-stat: allDifferentNumber1TotalValuesPruned=149
%%%mzn-stat: allDifferentNumber1TotalHallSetSizeConflict=0
%%%mzn-stat: allDifferentNumber1NumberOfConflicts=0
%%%mzn-stat: allDifferentNumber1MaxHallSetSizeConflict=0
%%%mzn-stat: allDifferentNumber1TotalPruningHallSetSize=588
%%%mzn-stat: allDifferentNumber1NumberOfPruningExplanations=149
%%%mzn-stat: allDifferentNumber1MaxPruningHallSetSize=17
%%%mzn-stat: allDifferentNumber1TotalFixedEdgesAtConflict=0
%%%mzn-stat: allDifferentNumber1TotalVarsInvolvedInPruning=109
%%%mzn-stat: allDifferentNumber1MaxValuesPrunedFromSingleVar=4
%%%mzn-stat: allDifferentNumber1TotalSccSizeAtPruning=206
%%%mzn-stat: allDifferentNumber1NumberOfSccPruningCalls=36
%%%mzn-stat: circuitNumber2PropagationsThatFoundConflict=12
%%%mzn-stat: circuitNumber2TotalFixedEdgesAtConflict=193
%%%mzn-stat: circuitNumber2NumberOfConflicts=12
%%%mzn-stat: circuitNumber2PropagationsThatPruned=11
%%%mzn-stat: circuitNumber2PropagationsTotal=41
%%%mzn-stat: AverageConflictSize=9.333333333333334
%%%mzn-stat: NumUnitNogoodsLearned=0
%%%mzn-stat: AverageLearnedNogoodLength=3.5833333333333335
%%%mzn-stat: AverageBacktrackAmount=0
%%%mzn-stat: AverageLbd=3.1666666666666665
%%%mzn-stat: 2AutonomousSearchNumBackupCalled=65
%%%mzn-stat: 2AutonomousSearchNumPredicatesRemoved=0
%%%mzn-stat: 2AutonomousSearchNumCalls=66
%%%mzn-stat: 2AutonomousSearchNumPredicatesAdded=333
%%%mzn-stat: 2AutonomousSearchAverageSizeOfHeap=5.045454545454546
%%%mzn-stat: 2AutonomousSearchNumAssignedPredicatesEncountered=333
%%%mzn-stat-end
maxleg = 861;
succ = array1d(1..20,[4, 6, 17, 11, 8, 10, 15, 13, 5, 14, 12, 18, 20, 16, 3, 19, 1, 2, 9, 7]);
% time elapsed: 0.25 s
----------
==========
% time elapsed: 0.26 s
%%%mzn-stat: initTime=0.002105283
%%%mzn-stat: objective=861
%%%mzn-stat: nodes=256
%%%mzn-stat: restarts=0
%%%mzn-stat: peakDepth=72
%%%mzn-stat: solveTime=0.01955536
%%%mzn-stat: variables=198
%%%mzn-stat: propagators=121
%%%mzn-stat: failures=178
%%%mzn-stat: propagations=5208
%%%mzn-stat: nogoods=178
%%%mzn-stat: numAtomicConstraintsPropagated=0
%%%mzn-stat: allDifferentNumber1PropagationsTotal=612
%%%mzn-stat: allDifferentNumber1PropagationsThatFoundConflict=1
%%%mzn-stat: allDifferentNumber1PropagationsThatPruned=372
%%%mzn-stat: allDifferentNumber1TotalValuesPruned=1413
%%%mzn-stat: allDifferentNumber1TotalHallSetSizeConflict=11
%%%mzn-stat: allDifferentNumber1NumberOfConflicts=1
%%%mzn-stat: allDifferentNumber1MaxHallSetSizeConflict=11
%%%mzn-stat: allDifferentNumber1TotalPruningHallSetSize=5006
%%%mzn-stat: allDifferentNumber1NumberOfPruningExplanations=1413
%%%mzn-stat: allDifferentNumber1MaxPruningHallSetSize=17
%%%mzn-stat: allDifferentNumber1TotalFixedEdgesAtConflict=9
%%%mzn-stat: allDifferentNumber1TotalVarsInvolvedInPruning=1110
%%%mzn-stat: allDifferentNumber1MaxValuesPrunedFromSingleVar=4
%%%mzn-stat: allDifferentNumber1TotalSccSizeAtPruning=1802
%%%mzn-stat: allDifferentNumber1NumberOfSccPruningCalls=372
%%%mzn-stat: circuitNumber2PropagationsThatFoundConflict=177
%%%mzn-stat: circuitNumber2TotalFixedEdgesAtConflict=2720
%%%mzn-stat: circuitNumber2NumberOfConflicts=177
%%%mzn-stat: circuitNumber2PropagationsThatPruned=86
%%%mzn-stat: circuitNumber2PropagationsTotal=412
%%%mzn-stat: AverageConflictSize=14.331460674157304
%%%mzn-stat: NumUnitNogoodsLearned=1
%%%mzn-stat: AverageLearnedNogoodLength=9.668539325842696
%%%mzn-stat: AverageBacktrackAmount=0
%%%mzn-stat: AverageLbd=3.949438202247191
%%%mzn-stat: 2AutonomousSearchNumBackupCalled=65
%%%mzn-stat: 2AutonomousSearchNumPredicatesRemoved=0
%%%mzn-stat: 2AutonomousSearchNumCalls=66
%%%mzn-stat: 2AutonomousSearchNumPredicatesAdded=796
%%%mzn-stat: 2AutonomousSearchAverageSizeOfHeap=5.045454545454546
%%%mzn-stat: 2AutonomousSearchNumAssignedPredicatesEncountered=333
%%%mzn-stat-end
